
******************************************************************************
This program contains Ipopt, a library for large-scale nonlinear optimization.
 Ipopt is released as open source code under the Eclipse Public License (EPL).
         For more information visit https://github.com/coin-or/Ipopt
******************************************************************************

This is Ipopt version 3.13.4, running with linear solver mumps.
NOTE: Other linear solvers might be more efficient (see Ipopt documentation).

Number of nonzeros in equality constraint Jacobian...:      976
Number of nonzeros in inequality constraint Jacobian.:        0
Number of nonzeros in Lagrangian Hessian.............:        0

Total number of variables............................:       61
                     variables with only lower bounds:        0
                variables with lower and upper bounds:       55
                     variables with only upper bounds:        0
Total number of equality constraints.................:       16
Total number of inequality constraints...............:        0
        inequality constraints with only lower bounds:        0
   inequality constraints with lower and upper bounds:        0
        inequality constraints with only upper bounds:        0

iter    objective    inf_pr   inf_du lg(mu)  ||d||  lg(rg) alpha_du alpha_pr  ls
   0  1.0000000e+00 2.35e-01 0.00e+00   0.0 0.00e+00    -  0.00e+00 0.00e+00   0
   1  1.0000000e+00 2.88e-01 4.71e+02   0.3 2.18e+00    -  8.85e-01 1.97e-01f  1
   2  1.0000000e+00 2.25e-01 6.70e+01   0.2 1.89e-01    -  1.00e+00 1.00e+00f  1
   3  1.0000000e+00 5.71e-01 3.21e+02   0.2 2.18e-01    -  1.00e+00 1.00e+00f  1
   4  1.0000000e+00 5.65e-01 3.44e+02   0.2 1.88e+00    -  4.71e-01 2.64e-02h  5
   5  1.0000000e+00 5.62e-01 3.95e+02   0.2 8.77e-01    -  1.00e+00 6.14e-02h  5
   6  1.0000000e+00 2.81e-01 1.40e+02   0.2 2.35e-01    -  1.00e+00 1.00e+00H  1
   7  1.0000000e+00 2.23e-01 6.46e+01   0.2 8.23e-02    -  1.00e+00 5.00e-01h  2
   8  1.0000000e+00 3.63e-02 4.91e+02   0.2 4.94e-02    -  1.00e+00 1.00e+00h  1
   9  1.0000000e+00 2.19e-02 4.66e+02  -0.6 3.03e-02    -  1.00e+00 2.50e-01h  3
iter    objective    inf_pr   inf_du lg(mu)  ||d||  lg(rg) alpha_du alpha_pr  ls
  10  1.0000000e+00 2.06e-02 4.41e+02  -1.8 4.39e-02    -  1.00e+00 6.25e-02h  5
  11  1.0000000e+00 1.93e-02 4.10e+02  -2.5 4.56e-02    -  1.00e+00 6.25e-02h  5
  12  1.0000000e+00 1.87e-02 4.11e+02  -3.2 3.01e-02    -  1.00e+00 3.12e-02h  6
  13  1.0000000e+00 1.81e-02 4.12e+02  -4.1 2.69e-02    -  1.00e+00 3.12e-02h  6
  14  1.0000000e+00 1.75e-02 4.13e+02  -5.5 3.08e-02    -  1.00e+00 3.12e-02h  6
  15  1.0000000e+00 1.70e-02 4.13e+02  -6.5 3.20e-02    -  1.00e+00 3.12e-02h  6
  16  1.0000000e+00 1.65e-02 4.14e+02  -7.8 3.24e-02    -  1.00e+00 3.12e-02h  6
  17  1.0000000e+00 1.59e-02 4.14e+02  -8.4 3.26e-02    -  1.00e+00 3.12e-02h  6
  18  1.0000000e+00 1.54e-02 4.14e+02  -8.9 3.28e-02    -  1.00e+00 3.12e-02h  6
  19  1.0000000e+00 1.50e-02 4.14e+02  -9.5 3.29e-02    -  1.00e+00 3.12e-02h  6
iter    objective    inf_pr   inf_du lg(mu)  ||d||  lg(rg) alpha_du alpha_pr  ls
  20  1.0000000e+00 1.45e-02 4.13e+02 -10.0 3.31e-02    -  1.00e+00 3.12e-02h  6
  21  1.0000000e+00 1.40e-02 4.13e+02 -10.4 3.32e-02    -  1.00e+00 3.12e-02h  6
  22  1.0000000e+00 1.36e-02 4.12e+02 -11.0 3.33e-02    -  1.00e+00 3.12e-02h  6
  23  1.0000000e+00 1.32e-02 4.11e+02 -11.0 3.34e-02    -  1.00e+00 3.12e-02h  6
  24  1.0000000e+00 1.28e-02 4.10e+02 -11.0 3.35e-02    -  1.00e+00 3.12e-02h  6
  25  1.0000000e+00 1.24e-02 4.09e+02 -11.0 3.35e-02    -  1.00e+00 3.12e-02h  6
  26  1.0000000e+00 1.20e-02 4.08e+02 -11.0 3.36e-02    -  1.00e+00 3.12e-02h  6
  27  1.0000000e+00 1.16e-02 4.06e+02 -11.0 3.36e-02    -  1.00e+00 3.12e-02h  6
  28  1.0000000e+00 1.12e-02 4.05e+02 -11.0 3.37e-02    -  1.00e+00 3.12e-02h  6
  29  1.0000000e+00 1.09e-02 4.03e+02 -11.0 3.37e-02    -  1.00e+00 3.12e-02h  6
iter    objective    inf_pr   inf_du lg(mu)  ||d||  lg(rg) alpha_du alpha_pr  ls
  30  1.0000000e+00 1.10e-02 4.01e+02 -11.0 3.37e-02    -  1.00e+00 3.12e-02h  6
  31  1.0000000e+00 1.11e-02 3.99e+02 -11.0 3.37e-02    -  1.00e+00 3.12e-02h  6
  32  1.0000000e+00 1.11e-02 3.97e+02 -11.0 3.37e-02    -  1.00e+00 3.12e-02h  6
  33  1.0000000e+00 1.12e-02 3.95e+02 -11.0 3.37e-02    -  1.00e+00 3.12e-02h  6
  34  1.0000000e+00 1.13e-02 3.92e+02 -11.0 3.37e-02    -  1.00e+00 3.12e-02h  6
  35  1.0000000e+00 1.14e-02 3.89e+02 -11.0 3.36e-02    -  1.00e+00 3.12e-02h  6
  36  1.0000000e+00 1.14e-02 3.87e+02 -11.0 3.35e-02    -  1.00e+00 3.12e-02h  6
  37  1.0000000e+00 1.14e-02 3.84e+02 -11.0 3.34e-02    -  1.00e+00 3.12e-02h  6
  38  1.0000000e+00 1.15e-02 3.81e+02 -11.0 3.33e-02    -  1.00e+00 3.12e-02h  6
  39  1.0000000e+00 1.15e-02 3.78e+02 -11.0 3.31e-02    -  1.00e+00 3.12e-02h  6
iter    objective    inf_pr   inf_du lg(mu)  ||d||  lg(rg) alpha_du alpha_pr  ls
  40  1.0000000e+00 1.15e-02 3.74e+02 -11.0 3.28e-02    -  1.00e+00 3.12e-02h  6
  41  1.0000000e+00 1.15e-02 3.71e+02 -11.0 3.26e-02    -  1.00e+00 3.12e-02h  6
  42  1.0000000e+00 2.89e-01 1.04e+01 -11.0 3.22e-02    -  1.00e+00 1.00e+00w  1
  43  1.0000000e+00 6.61e-01 1.36e+00 -11.0 4.44e-01    -  1.18e-01 6.11e-01w  1
In iteration 43, 1 Slack too small, adjusting variable bound
  44  1.0000000e+00 6.61e-01 2.38e+00 -11.0 1.88e+00    -  2.07e-01 4.33e-11w  1
  45  1.0000000e+00 1.14e-02 3.67e+02 -11.0 1.89e+00    -  1.00e+00 3.12e-02h  5
  46  1.0000000e+00 1.14e-02 3.63e+02 -11.0 3.19e-02    -  1.00e+00 3.12e-02h  6
  47  1.0000000e+00 1.13e-02 3.59e+02 -11.0 3.14e-02    -  1.00e+00 3.12e-02h  6
  48  1.0000000e+00 1.13e-02 3.55e+02 -11.0 3.09e-02    -  1.00e+00 3.12e-02h  6
  49  1.0000000e+00 1.17e-02 3.44e+02 -11.0 3.04e-02    -  1.00e+00 6.25e-02h  5
iter    objective    inf_pr   inf_du lg(mu)  ||d||  lg(rg) alpha_du alpha_pr  ls
  50  1.0000000e+00 1.19e-02 3.33e+02 -11.0 2.91e-02    -  1.00e+00 6.25e-02h  5
  51  1.0000000e+00 1.19e-02 3.22e+02 -11.0 2.76e-02    -  1.00e+00 6.25e-02h  5
  52  1.0000000e+00 1.18e-02 3.10e+02 -11.0 2.60e-02    -  1.00e+00 6.25e-02h  5
  53  1.0000000e+00 1.17e-02 2.99e+02 -11.0 2.44e-02    -  1.00e+00 6.25e-02h  5
  54  1.0000000e+00 1.14e-02 2.88e+02 -11.0 2.28e-02    -  1.00e+00 6.25e-02h  5
  55  1.0000000e+00 1.11e-01 7.31e+00 -11.0 2.13e-02    -  1.00e+00 1.00e+00w  1
  56  1.0000000e+00 8.94e-02 3.52e+00 -11.0 2.09e-02    -  1.00e+00 1.00e+00w  1
  57  1.0000000e+00 1.23e-02 5.26e-01 -11.0 2.45e-03    -  1.00e+00 1.00e+00w  1
  58  1.0000000e+00 1.16e-02 2.62e+02 -11.0 1.49e-02    -  1.00e+00 1.25e-01h  3
  59  1.0000000e+00 1.15e-02 2.47e+02 -11.0 2.44e-02    -  1.00e+00 6.25e-02h  5
iter    objective    inf_pr   inf_du lg(mu)  ||d||  lg(rg) alpha_du alpha_pr  ls
  60  1.0000000e+00 1.16e-02 2.05e+02 -11.0 2.02e-02    -  1.00e+00 1.25e-01h  4
  61  1.0000000e+00 1.11e-02 1.62e+02 -11.0 2.04e-02    -  1.00e+00 1.25e-01h  4
  62  1.0000000e+00 1.11e-02 1.27e+02 -11.0 1.53e-02    -  1.00e+00 2.50e-01h  3
  63  1.0000000e+00 9.91e-03 1.01e+02 -11.0 1.20e-02    -  1.00e+00 2.50e-01h  3
  64  1.0000000e+00 9.64e-03 5.31e+01 -11.0 1.00e-02    -  1.00e+00 5.00e-01h  2
  65  1.0000000e+00 7.62e-03 2.83e+01 -11.0 8.94e-03    -  1.00e+00 5.00e-01h  2
  66  1.0000000e+00 6.15e-03 1.48e+01 -11.0 8.44e-03    -  1.00e+00 5.00e-01h  2
  67  1.0000000e+00 5.27e-03 7.66e+00 -11.0 8.14e-03    -  1.00e+00 5.00e-01h  2
  68  1.0000000e+00 8.42e-03 1.04e-01 -11.0 7.95e-03    -  1.00e+00 1.00e+00w  1
  69  1.0000000e+00 7.18e-03 6.23e-02 -11.0 7.70e-03    -  1.00e+00 1.00e+00w  1
iter    objective    inf_pr   inf_du lg(mu)  ||d||  lg(rg) alpha_du alpha_pr  ls
  70  1.0000000e+00 7.63e-03 6.45e-02 -11.0 7.80e-03    -  1.00e+00 1.00e+00w  1
  71  1.0000000e+00 4.76e-03 3.92e+00 -11.0 8.04e-03    -  1.00e+00 5.00e-01h  1
  72  1.0000000e+00 4.43e-03 2.00e+00 -11.0 7.86e-03    -  1.00e+00 5.00e-01h  2
  73  1.0000000e+00 4.29e-03 1.01e+00 -11.0 7.83e-03    -  1.00e+00 5.00e-01h  2
  74  1.0000000e+00 4.26e-03 5.10e-01 -11.0 7.85e-03    -  1.00e+00 5.00e-01h  2
  75  1.0000000e+00 3.77e-03 4.02e-01 -11.0 7.92e-03    -  1.00e+00 2.50e-01h  3
  76  1.0000000e+00 3.43e-03 3.14e-01 -11.0 7.98e-03    -  1.00e+00 2.50e-01h  3
  77  1.0000000e+00 3.17e-03 2.45e-01 -11.0 8.05e-03    -  1.00e+00 2.50e-01h  3
  78  1.0000000e+00 3.03e-03 1.90e-01 -11.0 8.12e-03    -  1.00e+00 2.50e-01h  3
  79  1.0000000e+00 3.06e-03 1.46e-01 -11.0 8.20e-03    -  1.00e+00 2.50e-01h  3
iter    objective    inf_pr   inf_du lg(mu)  ||d||  lg(rg) alpha_du alpha_pr  ls
  80  1.0000000e+00 3.08e-03 1.11e-01 -11.0 8.29e-03    -  1.00e+00 2.50e-01h  3
  81  1.0000000e+00 3.12e-03 8.45e-02 -11.0 8.40e-03    -  1.00e+00 2.50e-01h  3
  82  1.0000000e+00 9.86e-03 2.38e-01 -11.0 8.50e-03    -  1.00e+00 1.00e+00w  1
  83  1.0000000e+00 9.73e-03 8.19e-02 -11.0 8.86e-03    -  1.00e+00 1.00e+00w  1
  84  1.0000000e+00 1.66e-02 8.50e-02 -11.0 1.07e-02    -  1.00e+00 1.00e+00w  1
  85  1.0000000e+00 3.13e-03 7.94e-02 -11.0 1.26e-02    -  1.00e+00 1.25e-01h  3
  86  1.0000000e+00 3.06e-03 7.90e-02 -11.0 8.27e-03    -  1.00e+00 1.25e-01h  4
  87  1.0000000e+00 2.99e-03 7.90e-02 -11.0 8.08e-03    -  1.00e+00 1.25e-01h  4
  88  1.0000000e+00 2.92e-03 7.82e-02 -11.0 7.86e-03    -  1.00e+00 1.25e-01h  4
  89  1.0000000e+00 2.95e-03 7.20e-02 -11.0 7.50e-03    -  1.00e+00 1.25e-01h  4
iter    objective    inf_pr   inf_du lg(mu)  ||d||  lg(rg) alpha_du alpha_pr  ls
  90  1.0000000e+00 2.97e-03 6.76e-02 -11.0 8.29e-03    -  1.00e+00 6.25e-02h  5
  91  1.0000000e+00 2.97e-03 6.36e-02 -11.0 8.40e-03    -  1.00e+00 6.25e-02h  5
  92  1.0000000e+00 2.97e-03 6.00e-02 -11.0 8.47e-03    -  1.00e+00 6.25e-02h  5
  93  1.0000000e+00 2.97e-03 5.65e-02 -11.0 8.55e-03    -  1.00e+00 6.25e-02h  5
  94  1.0000000e+00 2.99e-03 5.16e-02 -11.0 7.72e-03    -  1.00e+00 1.25e-01h  4
  95  1.0000000e+00 1.91e-02 2.53e-02 -11.0 8.42e-03    -  1.00e+00 1.00e+00w  1
  96  1.0000000e+00 2.22e-02 5.24e-03 -11.0 1.12e-02    -  1.00e+00 1.00e+00w  1
  97  1.0000000e+00 1.96e-02 4.53e-03 -11.0 1.24e-02    -  1.00e+00 1.39e-01w  1
  98  1.0000000e+00 3.01e-03 4.82e-02 -11.0 1.07e-02    -  1.00e+00 6.25e-02h  4
  99  1.0000000e+00 2.97e-03 4.74e-02 -11.0 1.33e-02    -  1.00e+00 3.12e-02h  6
iter    objective    inf_pr   inf_du lg(mu)  ||d||  lg(rg) alpha_du alpha_pr  ls
 100  1.0000000e+00 2.93e-03 4.67e-02 -11.0 1.33e-02    -  1.00e+00 3.12e-02h  6

Number of Iterations....: 100

                                   (scaled)                 (unscaled)
Objective...............:   1.0000000000000000e+00    1.0000000000000000e+00
Dual infeasibility......:   4.6688337678617936e-02    4.6688337678617936e-02
Constraint violation....:   2.9285573926532485e-03    2.9285573926532485e-03
Complementarity.........:   2.4605803525219022e-11    2.4605803525219022e-11
Overall NLP error.......:   4.6688337678617936e-02    4.6688337678617936e-02


Number of objective function evaluations             = 481
Number of objective gradient evaluations             = 101
Number of equality constraint evaluations            = 481
Number of inequality constraint evaluations          = 0
Number of equality constraint Jacobian evaluations   = 101
Number of inequality constraint Jacobian evaluations = 0
Number of Lagrangian Hessian evaluations             = 0
Total CPU secs in IPOPT (w/o function evaluations)   =      2.157
Total CPU secs in NLP function evaluations           =   1498.772

EXIT: Maximum Number of Iterations Exceeded.
